###########
# KnapSack problem - data file
# Implementation of the standard Knapsack problem
#
# Author: S. Moret
# Date: 09.03.2021
# Data from: https://github.com/discreteoptimization/assignment/tree/master/knapsack/data
###########

param N := 4;
param W := 11;

param: c w :=
1 8 4
2 10 5
3 15 8
4 4 3
;